05 5.0 5
02 5.0 6
08 5.0 3
05 5.1 5
02 5.1 6
08 5.1 1
05 5.2 3
02 5.2 6
08 5.2 3
05 5.3 4
02 5.3 6
08 5.3 0
05 5.4 5
02 5.4 5
08 5.4 3
05 5.5 3
02 5.5 6
08 5.5 1
05 5.6 4
02 5.6 6
08 5.6 3
05 5.7 3
02 5.7 6
08 5.7 0
05 5.8 5
02 5.8 5
08 5.8 2
05 5.9 4
02 5.9 6
08 5.9 4
05 5.10 4
02 5.10 6
08 5.10 5
05 5.11 3
02 5.11 6
08 5.11 2
05 5.12 4
02 5.12 6
08 5.12 1
05 5.13 4
02 5.13 5
08 5.13 2
05 5.14 5
02 5.14 6
08 5.14 0
05 5.15 4
02 5.15 6
08 5.15 2
05 5.16 4
02 5.16 6
08 5.16 1
05 5.17 6
02 5.17 6
08 5.17 1
05 5.18 2
02 5.18 6
08 5.18 1
05 5.19 4
02 5.19 5
08 5.19 4
05 5.20 3
02 5.20 4
08 5.20 4
05 5.21 3
02 5.21 6
08 5.21 1
05 5.22 4
02 5.22 5
08 5.22 1
05 5.23 4
02 5.23 6
08 5.23 3
05 5.24 3
02 5.24 5
08 5.24 2
05 5.25 4
02 5.25 5
08 5.25 2
05 5.26 5
02 5.26 6
08 5.26 3
05 5.27 6
02 5.27 6
08 5.27 1
05 5.28 5
02 5.28 4
08 5.28 2
05 5.29 5
02 5.29 6
08 5.29 1
05 5.30 5
02 5.30 6
08 5.30 1
05 5.31 4
02 5.31 6
08 5.31 3
05 5.32 5
02 5.32 6
08 5.32 0
05 5.33 4
02 5.33 6
08 5.33 2
05 5.34 4
02 5.34 5
08 5.34 1
05 5.35 4
02 5.35 6
08 5.35 3
05 5.36 5
02 5.36 6
08 5.36 4
05 5.37 5
02 5.37 6
08 5.37 2
05 5.38 5
02 5.38 6
08 5.38 2
05 5.39 4
02 5.39 6
08 5.39 1
05 5.40 4
02 5.40 6
08 5.40 2
05 5.41 4
02 5.41 6
08 5.41 2
05 5.42 4
02 5.42 5
08 5.42 1
05 5.43 6
02 5.43 6
08 5.43 0
05 5.44 4
02 5.44 6
08 5.44 4
05 5.45 3
02 5.45 6
08 5.45 4
05 5.46 6
02 5.46 6
08 5.46 2
05 5.47 4
02 5.47 6
08 5.47 2
05 5.48 5
02 5.48 6
08 5.48 1
05 5.49 5
02 5.49 5
08 5.49 4
05 5.50 6
02 5.50 6
08 5.50 2
05 5.51 6
02 5.51 5
08 5.51 4
05 5.52 5
02 5.52 6
08 5.52 2
05 5.53 4
02 5.53 4
08 5.53 3
05 5.54 4
02 5.54 6
08 5.54 3
05 5.55 5
02 5.55 6
08 5.55 0
05 5.56 4
02 5.56 6
08 5.56 2
05 5.57 5
02 5.57 4
08 5.57 4
05 5.58 5
02 5.58 6
08 5.58 0
05 5.59 3
02 5.59 5
08 5.59 2
05 5.60 5
02 5.60 5
08 5.60 2
05 5.61 5
02 5.61 6
08 5.61 2
05 5.62 3
02 5.62 5
08 5.62 2
05 5.63 4
02 5.63 6
08 5.63 4
05 5.64 5
02 5.64 6
08 5.64 3
05 5.65 5
02 5.65 4
08 5.65 1
05 5.66 4
02 5.66 6
08 5.66 4
05 5.67 5
02 5.67 6
08 5.67 2
05 5.68 4
02 5.68 6
08 5.68 1
05 5.69 6
02 5.69 6
08 5.69 3
05 5.70 5
02 5.70 6
08 5.70 1
05 5.71 5
02 5.71 6
08 5.71 1
05 5.72 4
02 5.72 5
08 5.72 0
05 5.73 3
02 5.73 6
08 5.73 1
05 5.74 6
02 5.74 5
08 5.74 1
05 5.75 3
02 5.75 6
08 5.75 1
05 5.76 3
02 5.76 6
08 5.76 1
05 5.77 4
02 5.77 6
08 5.77 0
05 5.78 5
02 5.78 5
08 5.78 0
05 5.79 4
02 5.79 6
08 5.79 3
05 5.80 4
02 5.80 6
08 5.80 3
05 5.81 5
02 5.81 5
08 5.81 3
05 5.82 6
02 5.82 6
08 5.82 2
05 5.83 4
02 5.83 6
08 5.83 4
05 5.84 4
02 5.84 6
08 5.84 1
05 5.85 5
02 5.85 6
08 5.85 1
05 5.86 5
02 5.86 6
08 5.86 2
05 5.87 4
02 5.87 6
08 5.87 1
05 5.88 4
02 5.88 5
08 5.88 1
05 5.89 4
02 5.89 6
08 5.89 2
05 5.90 5
02 5.90 6
08 5.90 3
05 5.91 5
02 5.91 5
08 5.91 0
05 5.92 3
02 5.92 6
08 5.92 3
05 5.93 5
02 5.93 6
08 5.93 2
05 5.94 5
02 5.94 5
08 5.94 2
05 5.95 0
02 5.95 6
08 5.95 2
05 5.96 1
02 5.96 5
08 5.96 3
05 5.97 3
02 5.97 6
08 5.97 2
05 5.98 3
02 5.98 6
08 5.98 1
05 5.99 4
02 5.99 6
08 5.99 4
05 6.0 5
02 6.0 7
08 6.0 4
05 6.1 7
02 6.1 9
08 6.1 4
05 6.2 6
02 6.2 8
08 6.2 3
05 6.3 7
02 6.3 9
08 6.3 2
05 6.4 7
02 6.4 9
08 6.4 2
05 6.5 7
02 6.5 9
08 6.5 4
05 6.6 6
02 6.6 9
08 6.6 4
05 6.7 6
02 6.7 9
08 6.7 1
05 6.8 4
02 6.8 9
08 6.8 2
05 6.9 6
02 6.9 8
08 6.9 2
05 6.10 5
02 6.10 8
08 6.10 5
05 6.11 5
02 6.11 9
08 6.11 1
05 6.12 4
02 6.12 9
08 6.12 4
05 6.13 8
02 6.13 9
08 6.13 2
05 6.14 6
02 6.14 9
08 6.14 2
05 6.15 4
02 6.15 8
08 6.15 2
05 6.16 6
02 6.16 9
08 6.16 4
05 6.17 5
02 6.17 8
08 6.17 3
05 6.18 4
02 6.18 8
08 6.18 5
05 6.19 7
02 6.19 9
08 6.19 4
05 6.20 5
02 6.20 9
08 6.20 4
05 6.21 8
02 6.21 9
08 6.21 3
05 6.22 7
02 6.22 8
08 6.22 3
05 6.23 6
02 6.23 9
08 6.23 0
05 6.24 6
02 6.24 8
08 6.24 1
05 6.25 5
02 6.25 8
08 6.25 2
05 6.26 6
02 6.26 8
08 6.26 2
05 6.27 5
02 6.27 7
08 6.27 2
05 6.28 6
02 6.28 9
08 6.28 2
05 6.29 5
02 6.29 9
08 6.29 4
05 6.30 8
02 6.30 9
08 6.30 3
05 6.31 6
02 6.31 8
08 6.31 4
05 6.32 6
02 6.32 9
08 6.32 1
05 6.33 7
02 6.33 7
08 6.33 0
05 6.34 6
02 6.34 9
08 6.34 4
05 6.35 7
02 6.35 9
08 6.35 3
05 6.36 6
02 6.36 9
08 6.36 4
05 6.37 7
02 6.37 6
08 6.37 4
05 6.38 8
02 6.38 8
08 6.38 2
05 6.39 6
02 6.39 8
08 6.39 4
05 6.40 7
02 6.40 9
08 6.40 4
05 6.41 6
02 6.41 9
08 6.41 2
05 6.42 5
02 6.42 9
08 6.42 3
05 6.43 7
02 6.43 9
08 6.43 2
05 6.44 5
02 6.44 8
08 6.44 4
05 6.45 5
02 6.45 8
08 6.45 2
05 6.46 8
02 6.46 9
08 6.46 4
05 6.47 8
02 6.47 8
08 6.47 0
05 6.48 6
02 6.48 8
08 6.48 3
05 6.49 6
02 6.49 9
08 6.49 4
05 6.50 6
02 6.50 7
08 6.50 2
05 6.51 7
02 6.51 8
08 6.51 2
05 6.52 6
02 6.52 9
08 6.52 4
05 6.53 8
02 6.53 9
08 6.53 4
05 6.54 8
02 6.54 9
08 6.54 3
05 6.55 6
02 6.55 9
08 6.55 2
05 6.56 7
02 6.56 9
08 6.56 2
05 6.57 4
02 6.57 9
08 6.57 2
05 6.58 8
02 6.58 9
08 6.58 4
05 6.59 5
02 6.59 9
08 6.59 4
05 6.60 6
02 6.60 8
08 6.60 1
05 6.61 4
02 6.61 9
08 6.61 3
05 6.62 7
02 6.62 9
08 6.62 4
05 6.63 6
02 6.63 8
08 6.63 3
05 6.64 8
02 6.64 8
08 6.64 0
05 6.65 6
02 6.65 9
08 6.65 3
05 6.66 8
02 6.66 9
08 6.66 6
05 6.67 7
02 6.67 9
08 6.67 5
05 6.68 6
02 6.68 9
08 6.68 0
05 6.69 2
02 6.69 8
08 6.69 3
05 6.70 6
02 6.70 8
08 6.70 3
05 6.71 6
02 6.71 9
08 6.71 3
05 6.72 8
02 6.72 9
08 6.72 2
05 6.73 7
02 6.73 9
08 6.73 4
05 6.74 7
02 6.74 9
08 6.74 1
05 6.75 5
02 6.75 9
08 6.75 3
05 6.76 7
02 6.76 9
08 6.76 1
05 6.77 5
02 6.77 9
08 6.77 4
05 6.78 6
02 6.78 9
08 6.78 4
05 6.79 4
02 6.79 8
08 6.79 1
05 6.80 6
02 6.80 9
08 6.80 2
05 6.81 7
02 6.81 9
08 6.81 4
05 6.82 3
02 6.82 7
08 6.82 4
05 6.83 6
02 6.83 9
08 6.83 2
05 6.84 6
02 6.84 9
08 6.84 3
05 6.85 6
02 6.85 9
08 6.85 4
05 6.86 4
02 6.86 9
08 6.86 2
05 6.87 5
02 6.87 8
08 6.87 4
05 6.88 5
02 6.88 8
08 6.88 2
05 6.89 5
02 6.89 9
08 6.89 1
05 6.90 8
02 6.90 7
08 6.90 3
05 6.91 5
02 6.91 9
08 6.91 4
05 6.92 4
02 6.92 9
08 6.92 2
05 6.93 7
02 6.93 9
08 6.93 2
05 6.94 6
02 6.94 9
08 6.94 4
05 6.95 7
02 6.95 7
08 6.95 4
05 6.96 6
02 6.96 9
08 6.96 2
05 6.97 4
02 6.97 9
08 6.97 3
05 6.98 6
02 6.98 9
08 6.98 1
05 6.99 6
02 6.99 9
08 6.99 2
05 7.0 8
02 7.0 11
08 7.0 5
05 7.1 9
02 7.1 12
08 7.1 6
05 7.2 8
02 7.2 11
08 7.2 4
05 7.3 8
02 7.3 12
08 7.3 3
05 7.4 9
02 7.4 11
08 7.4 5
05 7.5 7
02 7.5 11
08 7.5 4
05 7.6 7
02 7.6 10
08 7.6 3
05 7.7 8
02 7.7 12
08 7.7 4
05 7.8 8
02 7.8 12
08 7.8 4
05 7.9 9
02 7.9 12
08 7.9 3
05 7.10 9
02 7.10 12
08 7.10 4
05 7.11 6
02 7.11 10
08 7.11 5
05 7.12 12
02 7.12 11
08 7.12 4
05 7.13 6
02 7.13 11
08 7.13 5
05 7.14 9
02 7.14 12
08 7.14 3
05 7.15 8
02 7.15 12
08 7.15 3
05 7.16 8
02 7.16 12
08 7.16 4
05 7.17 6
02 7.17 12
08 7.17 5
05 7.18 7
02 7.18 11
08 7.18 4
05 7.19 8
02 7.19 12
08 7.19 7
05 7.20 10
02 7.20 12
08 7.20 6
05 7.21 7
02 7.21 12
08 7.21 3
05 7.22 7
02 7.22 11
08 7.22 2
05 7.23 10
02 7.23 10
08 7.23 3
05 7.24 9
02 7.24 11
08 7.24 4
05 7.25 8
02 7.25 12
08 7.25 1
05 7.26 8
02 7.26 12
08 7.26 3
05 7.27 7
02 7.27 12
08 7.27 3
05 7.28 9
02 7.28 12
08 7.28 4
05 7.29 7
02 7.29 12
08 7.29 6
05 7.30 7
02 7.30 11
08 7.30 0
05 7.31 8
02 7.31 12
08 7.31 5
05 7.32 8
02 7.32 12
08 7.32 3
05 7.33 9
02 7.33 12
08 7.33 4
05 7.34 8
02 7.34 12
08 7.34 4
05 7.35 9
02 7.35 12
08 7.35 5
05 7.36 9
02 7.36 11
08 7.36 2
05 7.37 7
02 7.37 10
08 7.37 2
05 7.38 7
02 7.38 11
08 7.38 2
05 7.39 6
02 7.39 12
08 7.39 4
05 7.40 9
02 7.40 11
08 7.40 2
05 7.41 8
02 7.41 11
08 7.41 5
05 7.42 9
02 7.42 11
08 7.42 4
05 7.43 9
02 7.43 12
08 7.43 5
05 7.44 10
02 7.44 12
08 7.44 5
05 7.45 9
02 7.45 12
08 7.45 3
05 7.46 8
02 7.46 12
08 7.46 5
05 7.47 8
02 7.47 12
08 7.47 5
05 7.48 9
02 7.48 11
08 7.48 8
05 7.49 7
02 7.49 12
08 7.49 8
05 7.50 6
02 7.50 11
08 7.50 5
05 7.51 10
02 7.51 10
08 7.51 4
05 7.52 8
02 7.52 12
08 7.52 2
05 7.53 8
02 7.53 12
08 7.53 1
05 7.54 9
02 7.54 11
08 7.54 2
05 7.55 8
02 7.55 12
08 7.55 3
05 7.56 7
02 7.56 11
08 7.56 5
05 7.57 8
02 7.57 12
08 7.57 1
05 7.58 9
02 7.58 12
08 7.58 3
05 7.59 9
02 7.59 12
08 7.59 0
05 7.60 9
02 7.60 9
08 7.60 6
05 7.61 10
02 7.61 12
08 7.61 2
05 7.62 7
02 7.62 9
08 7.62 1
05 7.63 10
02 7.63 12
08 7.63 2
05 7.64 8
02 7.64 12
08 7.64 4
05 7.65 6
02 7.65 12
08 7.65 4
05 7.66 9
02 7.66 12
08 7.66 2
05 7.67 10
02 7.67 12
08 7.67 6
05 7.68 7
02 7.68 11
08 7.68 5
05 7.69 9
02 7.69 12
08 7.69 4
05 7.70 9
02 7.70 12
08 7.70 3
05 7.71 7
02 7.71 11
08 7.71 5
05 7.72 10
02 7.72 10
08 7.72 3
05 7.73 8
02 7.73 10
08 7.73 2
05 7.74 8
02 7.74 12
08 7.74 1
05 7.75 10
02 7.75 11
08 7.75 5
05 7.76 8
02 7.76 12
08 7.76 2
05 7.77 8
02 7.77 12
08 7.77 6
05 7.78 6
02 7.78 11
08 7.78 2
05 7.79 9
02 7.79 12
08 7.79 2
05 7.80 9
02 7.80 12
08 7.80 4
05 7.81 9
02 7.81 12
08 7.81 5
05 7.82 9
02 7.82 11
08 7.82 3
05 7.83 8
02 7.83 11
08 7.83 2
05 7.84 9
02 7.84 12
08 7.84 6
05 7.85 10
02 7.85 12
08 7.85 3
05 7.86 4
02 7.86 10
08 7.86 3
05 7.87 7
02 7.87 12
08 7.87 5
05 7.88 7
02 7.88 11
08 7.88 5
05 7.89 9
02 7.89 12
08 7.89 4
05 7.90 8
02 7.90 12
08 7.90 3
05 7.91 7
02 7.91 12
08 7.91 4
05 7.92 10
02 7.92 12
08 7.92 7
05 7.93 7
02 7.93 11
08 7.93 7
05 7.94 7
02 7.94 12
08 7.94 5
05 7.95 8
02 7.95 12
08 7.95 3
05 7.96 11
02 7.96 11
08 7.96 5
05 7.97 7
02 7.97 11
08 7.97 4
05 7.98 8
02 7.98 10
08 7.98 6
05 7.99 8
02 7.99 12
08 7.99 6
05 8.0 11
02 8.0 15
08 8.0 5
05 8.1 10
02 8.1 16
08 8.1 7
05 8.2 7
02 8.2 15
08 8.2 4
05 8.3 10
02 8.3 15
08 8.3 5
05 8.4 10
02 8.4 16
08 8.4 8
05 8.5 11
02 8.5 16
08 8.5 4
05 8.6 11
02 8.6 16
08 8.6 4
05 8.7 11
02 8.7 13
08 8.7 8
05 8.8 11
02 8.8 15
08 8.8 8
05 8.9 12
02 8.9 16
08 8.9 6
05 8.10 10
02 8.10 16
08 8.10 8
05 8.11 13
02 8.11 15
08 8.11 8
05 8.12 13
02 8.12 14
08 8.12 5
05 8.13 11
02 8.13 15
08 8.13 4
05 8.14 11
02 8.14 14
08 8.14 5
05 8.15 12
02 8.15 14
08 8.15 5
05 8.16 10
02 8.16 15
08 8.16 4
05 8.17 11
02 8.17 16
08 8.17 7
05 8.18 10
02 8.18 14
08 8.18 4
05 8.19 10
02 8.19 14
08 8.19 5
05 8.20 10
02 8.20 16
08 8.20 2
05 8.21 12
02 8.21 16
08 8.21 3
05 8.22 15
02 8.22 15
08 8.22 4
05 8.23 11
02 8.23 16
08 8.23 4
05 8.24 12
02 8.24 15
08 8.24 2
05 8.25 11
02 8.25 15
08 8.25 2
05 8.26 11
02 8.26 15
08 8.26 5
05 8.27 9
02 8.27 15
08 8.27 8
05 8.28 10
02 8.28 16
08 8.28 4
05 8.29 9
02 8.29 16
08 8.29 6
05 8.30 11
02 8.30 15
08 8.30 5
05 8.31 15
02 8.31 15
08 8.31 4
05 8.32 9
02 8.32 16
08 8.32 5
05 8.33 11
02 8.33 13
08 8.33 6
05 8.34 7
02 8.34 16
08 8.34 5
05 8.35 11
02 8.35 15
08 8.35 5
05 8.36 10
02 8.36 14
08 8.36 7
05 8.37 13
02 8.37 16
08 8.37 3
05 8.38 11
02 8.38 16
08 8.38 7
05 8.39 14
02 8.39 16
08 8.39 3
05 8.40 9
02 8.40 15
08 8.40 5
05 8.41 9
02 8.41 15
08 8.41 3
05 8.42 9
02 8.42 15
08 8.42 5
05 8.43 10
02 8.43 15
08 8.43 8
05 8.44 10
02 8.44 15
08 8.44 5
05 8.45 9
02 8.45 14
08 8.45 4
05 8.46 9
02 8.46 15
08 8.46 4
05 8.47 12
02 8.47 14
08 8.47 5
05 8.48 9
02 8.48 15
08 8.48 5
05 8.49 11
02 8.49 15
08 8.49 5
05 8.50 8
02 8.50 16
08 8.50 8
05 8.51 12
02 8.51 15
08 8.51 5
05 8.52 11
02 8.52 14
08 8.52 4
05 8.53 10
02 8.53 16
08 8.53 6
05 8.54 12
02 8.54 15
08 8.54 8
05 8.55 11
02 8.55 15
08 8.55 8
05 8.56 10
02 8.56 16
08 8.56 5
05 8.57 8
02 8.57 14
08 8.57 6
05 8.58 9
02 8.58 14
08 8.58 4
05 8.59 9
02 8.59 14
08 8.59 6
05 8.60 10
02 8.60 15
08 8.60 5
05 8.61 12
02 8.61 13
08 8.61 5
05 8.62 12
02 8.62 13
08 8.62 6
05 8.63 11
02 8.63 16
08 8.63 2
05 8.64 11
02 8.64 16
08 8.64 7
05 8.65 8
02 8.65 15
08 8.65 0
05 8.66 13
02 8.66 16
08 8.66 4
05 8.67 9
02 8.67 15
08 8.67 3
05 8.68 11
02 8.68 15
08 8.68 8
05 8.69 9
02 8.69 15
08 8.69 4
05 8.70 15
02 8.70 16
08 8.70 2
05 8.71 11
02 8.71 14
08 8.71 1
05 8.72 9
02 8.72 15
08 8.72 3
05 8.73 6
02 8.73 14
08 8.73 7
05 8.74 11
02 8.74 16
08 8.74 3
05 8.75 11
02 8.75 16
08 8.75 3
05 8.76 9
02 8.76 13
08 8.76 4
05 8.77 11
02 8.77 16
08 8.77 7
05 8.78 13
02 8.78 14
08 8.78 4
05 8.79 13
02 8.79 16
08 8.79 2
05 8.80 12
02 8.80 13
08 8.80 6
05 8.81 11
02 8.81 15
08 8.81 7
05 8.82 12
02 8.82 15
08 8.82 3
05 8.83 10
02 8.83 15
08 8.83 7
05 8.84 12
02 8.84 15
08 8.84 7
05 8.85 9
02 8.85 15
08 8.85 5
05 8.86 11
02 8.86 14
08 8.86 7
05 8.87 11
02 8.87 14
08 8.87 8
05 8.88 10
02 8.88 15
08 8.88 3
05 8.89 12
02 8.89 14
08 8.89 9
05 8.90 12
02 8.90 14
08 8.90 5
05 8.91 11
02 8.91 15
08 8.91 7
05 8.92 10
02 8.92 13
08 8.92 4
05 8.93 10
02 8.93 15
08 8.93 2
05 8.94 9
02 8.94 14
08 8.94 7
05 8.95 10
02 8.95 15
08 8.95 6
05 8.96 10
02 8.96 15
08 8.96 4
05 8.97 10
02 8.97 16
08 8.97 9
05 8.98 12
02 8.98 14
08 8.98 3
05 8.99 11
02 8.99 14
08 8.99 6
05 9.0 15
02 9.0 20
08 9.0 5
05 9.1 8
02 9.1 19
08 9.1 8
05 9.2 13
02 9.2 18
08 9.2 7
05 9.3 14
02 9.3 20
08 9.3 6
05 9.4 12
02 9.4 17
08 9.4 5
05 9.5 15
02 9.5 18
08 9.5 7
05 9.6 16
02 9.6 20
08 9.6 3
05 9.7 12
02 9.7 19
08 9.7 6
05 9.8 14
02 9.8 19
08 9.8 5
05 9.9 13
02 9.9 20
08 9.9 9
05 9.10 14
02 9.10 19
08 9.10 6
05 9.11 13
02 9.11 19
08 9.11 3
05 9.12 12
02 9.12 15
08 9.12 5
05 9.13 13
02 9.13 18
08 9.13 5
05 9.14 13
02 9.14 18
08 9.14 8
05 9.15 12
02 9.15 16
08 9.15 6
05 9.16 13
02 9.16 20
08 9.16 7
05 9.17 14
02 9.17 20
08 9.17 7
05 9.18 16
02 9.18 20
08 9.18 6
05 9.19 13
02 9.19 20
08 9.19 3
05 9.20 15
02 9.20 20
08 9.20 10
05 9.21 16
02 9.21 19
08 9.21 9
05 9.22 16
02 9.22 20
08 9.22 3
05 9.23 18
02 9.23 19
08 9.23 7
05 9.24 11
02 9.24 18
08 9.24 6
05 9.25 14
02 9.25 19
08 9.25 8
05 9.26 10
02 9.26 20
08 9.26 6
05 9.27 14
02 9.27 18
08 9.27 6
05 9.28 16
02 9.28 19
08 9.28 4
05 9.29 13
02 9.29 17
08 9.29 7
05 9.30 14
02 9.30 19
08 9.30 8
05 9.31 16
02 9.31 19
08 9.31 4
05 9.32 15
02 9.32 18
08 9.32 6
05 9.33 14
02 9.33 19
08 9.33 3
05 9.34 15
02 9.34 19
08 9.34 7
05 9.35 17
02 9.35 19
08 9.35 5
05 9.36 9
02 9.36 19
08 9.36 5
05 9.37 16
02 9.37 20
08 9.37 9
05 9.38 10
02 9.38 18
08 9.38 7
05 9.39 12
02 9.39 19
08 9.39 3
05 9.40 12
02 9.40 19
08 9.40 4
05 9.41 16
02 9.41 19
08 9.41 6
05 9.42 13
02 9.42 19
08 9.42 9
05 9.43 15
02 9.43 19
08 9.43 6
05 9.44 14
02 9.44 18
08 9.44 7
05 9.45 13
02 9.45 19
08 9.45 8
05 9.46 11
02 9.46 20
08 9.46 6
05 9.47 14
02 9.47 20
08 9.47 8
05 9.48 14
02 9.48 19
08 9.48 10
05 9.49 17
02 9.49 20
08 9.49 4
05 9.50 12
02 9.50 20
08 9.50 2
05 9.51 14
02 9.51 19
08 9.51 4
05 9.52 9
02 9.52 19
08 9.52 8
05 9.53 18
02 9.53 17
08 9.53 7
05 9.54 12
02 9.54 20
08 9.54 6
05 9.55 14
02 9.55 19
08 9.55 8
05 9.56 13
02 9.56 20
08 9.56 10
05 9.57 13
02 9.57 18
08 9.57 5
05 9.58 18
02 9.58 19
08 9.58 11
05 9.59 14
02 9.59 19
08 9.59 7
05 9.60 13
02 9.60 20
08 9.60 8
05 9.61 14
02 9.61 17
08 9.61 4
05 9.62 12
02 9.62 17
08 9.62 6
05 9.63 16
02 9.63 18
08 9.63 4
05 9.64 13
02 9.64 18
08 9.64 11
05 9.65 13
02 9.65 18
08 9.65 9
05 9.66 15
02 9.66 19
08 9.66 4
05 9.67 13
02 9.67 17
08 9.67 9
05 9.68 15
02 9.68 16
08 9.68 5
05 9.69 13
02 9.69 18
08 9.69 12
05 9.70 14
02 9.70 20
08 9.70 5
05 9.71 14
02 9.71 18
08 9.71 4
05 9.72 15
02 9.72 19
08 9.72 4
05 9.73 11
02 9.73 18
08 9.73 9
05 9.74 14
02 9.74 19
08 9.74 6
05 9.75 11
02 9.75 19
08 9.75 7
05 9.76 15
02 9.76 19
08 9.76 6
05 9.77 13
02 9.77 18
08 9.77 5
05 9.78 13
02 9.78 19
08 9.78 9
05 9.79 11
02 9.79 19
08 9.79 4
05 9.80 15
02 9.80 18
08 9.80 4
05 9.81 13
02 9.81 19
08 9.81 5
05 9.82 13
02 9.82 20
08 9.82 7
05 9.83 14
02 9.83 18
08 9.83 6
05 9.84 12
02 9.84 18
08 9.84 10
05 9.85 14
02 9.85 20
08 9.85 6
05 9.86 12
02 9.86 19
08 9.86 5
05 9.87 11
02 9.87 18
08 9.87 8
05 9.88 17
02 9.88 18
08 9.88 5
05 9.89 16
02 9.89 18
08 9.89 4
05 9.90 16
02 9.90 20
08 9.90 7
05 9.91 13
02 9.91 20
08 9.91 6
05 9.92 12
02 9.92 19
08 9.92 8
05 9.93 14
02 9.93 17
08 9.93 6
05 9.94 16
02 9.94 17
08 9.94 4
05 9.95 11
02 9.95 19
08 9.95 7
05 9.96 14
02 9.96 19
08 9.96 7
05 9.97 15
02 9.97 18
08 9.97 7
05 9.98 13
02 9.98 19
08 9.98 5
05 9.99 16
02 9.99 20
08 9.99 4
05 10.0 16
02 10.0 24
08 10.0 10
05 10.1 15
02 10.1 24
08 10.1 10
05 10.2 15
02 10.2 25
08 10.2 11
05 10.3 19
02 10.3 21
08 10.3 11
05 10.4 17
02 10.4 23
08 10.4 7
05 10.5 15
02 10.5 24
08 10.5 9
05 10.6 15
02 10.6 23
08 10.6 9
05 10.7 21
02 10.7 24
08 10.7 8
05 10.8 20
02 10.8 24
08 10.8 8
05 10.9 13
02 10.9 23
08 10.9 9
05 10.10 17
02 10.10 23
08 10.10 12
05 10.11 20
02 10.11 22
08 10.11 8
05 10.12 17
02 10.12 21
08 10.12 10
05 10.13 19
02 10.13 23
08 10.13 6
05 10.14 15
02 10.14 22
08 10.14 6
05 10.15 17
02 10.15 23
08 10.15 7
05 10.16 15
02 10.16 24
08 10.16 8
05 10.17 15
02 10.17 24
08 10.17 5
05 10.18 22
02 10.18 23
08 10.18 8
05 10.19 16
02 10.19 23
08 10.19 7
05 10.20 21
02 10.20 22
08 10.20 9
05 10.21 17
02 10.21 23
08 10.21 10
05 10.22 17
02 10.22 23
08 10.22 8
05 10.23 12
02 10.23 22
08 10.23 9
05 10.24 17
02 10.24 24
08 10.24 9
05 10.25 14
02 10.25 22
08 10.25 6
05 10.26 17
02 10.26 24
08 10.26 5
05 10.27 17
02 10.27 25
08 10.27 6
05 10.28 19
02 10.28 22
08 10.28 10
05 10.29 16
02 10.29 25
08 10.29 11
05 10.30 15
02 10.30 25
08 10.30 5
05 10.31 19
02 10.31 23
08 10.31 8
05 10.32 14
02 10.32 24
08 10.32 11
05 10.33 18
02 10.33 23
08 10.33 8
05 10.34 18
02 10.34 24
08 10.34 10
05 10.35 17
02 10.35 23
08 10.35 11
05 10.36 18
02 10.36 23
08 10.36 7
05 10.37 16
02 10.37 23
08 10.37 7
05 10.38 17
02 10.38 23
08 10.38 8
05 10.39 16
02 10.39 23
08 10.39 7
05 10.40 15
02 10.40 25
08 10.40 12
05 10.41 20
02 10.41 23
08 10.41 5
05 10.42 19
02 10.42 24
08 10.42 12
05 10.43 14
02 10.43 24
08 10.43 14
05 10.44 19
02 10.44 24
08 10.44 4
05 10.45 16
02 10.45 22
08 10.45 10
05 10.46 17
02 10.46 21
08 10.46 4
05 10.47 12
02 10.47 24
08 10.47 9
05 10.48 18
02 10.48 24
08 10.48 6
05 10.49 14
02 10.49 25
08 10.49 9
05 10.50 19
02 10.50 24
08 10.50 11
05 10.51 15
02 10.51 23
08 10.51 5
05 10.52 15
02 10.52 23
08 10.52 11
05 10.53 19
02 10.53 23
08 10.53 5
05 10.54 17
02 10.54 22
08 10.54 5
05 10.55 18
02 10.55 22
08 10.55 8
05 10.56 15
02 10.56 25
08 10.56 7
05 10.57 16
02 10.57 24
08 10.57 7
05 10.58 20
02 10.58 24
08 10.58 9
05 10.59 17
02 10.59 24
08 10.59 7
05 10.60 19
02 10.60 24
08 10.60 10
05 10.61 20
02 10.61 22
08 10.61 10
05 10.62 19
02 10.62 23
08 10.62 12
05 10.63 20
02 10.63 25
08 10.63 6
05 10.64 16
02 10.64 24
08 10.64 10
05 10.65 20
02 10.65 23
08 10.65 10
05 10.66 17
02 10.66 24
08 10.66 15
05 10.67 18
02 10.67 21
08 10.67 8
05 10.68 13
02 10.68 22
08 10.68 5
05 10.69 17
02 10.69 24
08 10.69 8
05 10.70 15
02 10.70 24
08 10.70 10
05 10.71 15
02 10.71 24
08 10.71 8
05 10.72 15
02 10.72 25
08 10.72 6
05 10.73 20
02 10.73 24
08 10.73 11
05 10.74 16
02 10.74 22
08 10.74 11
05 10.75 13
02 10.75 23
08 10.75 9
05 10.76 17
02 10.76 25
08 10.76 9
05 10.77 17
02 10.77 25
08 10.77 10
05 10.78 17
02 10.78 24
08 10.78 12
05 10.79 17
02 10.79 23
08 10.79 4
05 10.80 18
02 10.80 24
08 10.80 7
05 10.81 16
02 10.81 23
08 10.81 12
05 10.82 16
02 10.82 23
08 10.82 12
05 10.83 15
02 10.83 22
08 10.83 10
05 10.84 16
02 10.84 21
08 10.84 3
05 10.85 17
02 10.85 23
08 10.85 6
05 10.86 14
02 10.86 22
08 10.86 6
05 10.87 17
02 10.87 23
08 10.87 4
05 10.88 15
02 10.88 24
08 10.88 9
05 10.89 17
02 10.89 25
08 10.89 6
05 10.90 19
02 10.90 23
08 10.90 6
05 10.91 17
02 10.91 24
08 10.91 9
05 10.92 20
02 10.92 24
08 10.92 5
05 10.93 19
02 10.93 23
08 10.93 10
05 10.94 15
02 10.94 22
08 10.94 8
05 10.95 16
02 10.95 24
08 10.95 8
05 10.96 18
02 10.96 23
08 10.96 9
05 10.97 14
02 10.97 25
08 10.97 11
05 10.98 18
02 10.98 24
08 10.98 9
05 10.99 18
02 10.99 23
08 10.99 8
05 11.0 18
02 11.0 28
08 11.0 12
05 11.1 22
02 11.1 28
08 11.1 14
05 11.2 20
02 11.2 28
08 11.2 11
05 11.3 21
02 11.3 29
08 11.3 13
05 11.4 21
02 11.4 27
08 11.4 14
05 11.5 23
02 11.5 29
08 11.5 5
05 11.6 22
02 11.6 30
08 11.6 15
05 11.7 19
02 11.7 27
08 11.7 9
05 11.8 20
02 11.8 27
08 11.8 11
05 11.9 19
02 11.9 27
08 11.9 9
05 11.10 20
02 11.10 29
08 11.10 9
05 11.11 23
02 11.11 26
08 11.11 12
05 11.12 21
02 11.12 29
08 11.12 10
05 11.13 21
02 11.13 27
08 11.13 12
05 11.14 22
02 11.14 29
08 11.14 7
05 11.15 20
02 11.15 26
08 11.15 9
05 11.16 18
02 11.16 30
08 11.16 9
05 11.17 19
02 11.17 29
08 11.17 14
05 11.18 22
02 11.18 29
08 11.18 11
05 11.19 21
02 11.19 29
08 11.19 7
05 11.20 16
02 11.20 27
08 11.20 11
05 11.21 22
02 11.21 29
08 11.21 12
05 11.22 19
02 11.22 29
08 11.22 13
05 11.23 23
02 11.23 27
08 11.23 11
05 11.24 22
02 11.24 29
08 11.24 8
05 11.25 20
02 11.25 30
08 11.25 10
05 11.26 23
02 11.26 26
08 11.26 11
05 11.27 20
02 11.27 29
08 11.27 7
05 11.28 22
02 11.28 27
08 11.28 7
05 11.29 19
02 11.29 28
08 11.29 5
05 11.30 20
02 11.30 27
08 11.30 12
05 11.31 18
02 11.31 28
08 11.31 10
05 11.32 19
02 11.32 28
08 11.32 11
05 11.33 22
02 11.33 30
08 11.33 7
05 11.34 22
02 11.34 27
08 11.34 7
05 11.35 23
02 11.35 28
08 11.35 10
05 11.36 23
02 11.36 29
08 11.36 10
05 11.37 20
02 11.37 27
08 11.37 11
05 11.38 20
02 11.38 30
08 11.38 8
05 11.39 21
02 11.39 30
08 11.39 12
05 11.40 19
02 11.40 27
08 11.40 7
05 11.41 20
02 11.41 28
08 11.41 11
05 11.42 21
02 11.42 28
08 11.42 13
05 11.43 19
02 11.43 28
08 11.43 8
05 11.44 17
02 11.44 28
08 11.44 12
05 11.45 20
02 11.45 27
08 11.45 11
05 11.46 22
02 11.46 30
08 11.46 9
05 11.47 21
02 11.47 28
08 11.47 13
05 11.48 20
02 11.48 28
08 11.48 9
05 11.49 16
02 11.49 28
08 11.49 13
05 11.50 20
02 11.50 28
08 11.50 9
05 11.51 19
02 11.51 30
08 11.51 7
05 11.52 23
02 11.52 26
08 11.52 6
05 11.53 23
02 11.53 29
08 11.53 9
05 11.54 20
02 11.54 29
08 11.54 8
05 11.55 18
02 11.55 28
08 11.55 8
05 11.56 21
02 11.56 27
08 11.56 9
05 11.57 24
02 11.57 29
08 11.57 8
05 11.58 21
02 11.58 28
08 11.58 9
05 11.59 18
02 11.59 29
08 11.59 8
05 11.60 17
02 11.60 27
08 11.60 9
05 11.61 22
02 11.61 28
08 11.61 7
05 11.62 18
02 11.62 29
08 11.62 8
05 11.63 21
02 11.63 28
08 11.63 8
05 11.64 23
02 11.64 29
08 11.64 8
05 11.65 20
02 11.65 30
08 11.65 9
05 11.66 19
02 11.66 28
08 11.66 9
05 11.67 16
02 11.67 29
08 11.67 12
05 11.68 19
02 11.68 28
08 11.68 10
05 11.69 21
02 11.69 28
08 11.69 12
05 11.70 16
02 11.70 30
08 11.70 11
05 11.71 23
02 11.71 29
08 11.71 12
05 11.72 24
02 11.72 29
08 11.72 11
05 11.73 20
02 11.73 29
08 11.73 10
05 11.74 21
02 11.74 27
08 11.74 14
05 11.75 19
02 11.75 27
08 11.75 15
05 11.76 20
02 11.76 28
08 11.76 6
05 11.77 19
02 11.77 29
08 11.77 12
05 11.78 20
02 11.78 26
08 11.78 12
05 11.79 21
02 11.79 27
08 11.79 8
05 11.80 20
02 11.80 29
08 11.80 10
05 11.81 24
02 11.81 27
08 11.81 13
05 11.82 18
02 11.82 29
08 11.82 7
05 11.83 20
02 11.83 27
08 11.83 12
05 11.84 24
02 11.84 29
08 11.84 13
05 11.85 19
02 11.85 29
08 11.85 9
05 11.86 17
02 11.86 28
08 11.86 10
05 11.87 21
02 11.87 27
08 11.87 13
05 11.88 17
02 11.88 29
08 11.88 10
05 11.89 20
02 11.89 25
08 11.89 7
05 11.90 24
02 11.90 27
08 11.90 8
05 11.91 24
02 11.91 29
08 11.91 8
05 11.92 21
02 11.92 27
08 11.92 9
05 11.93 20
02 11.93 27
08 11.93 10
05 11.94 21
02 11.94 28
08 11.94 5
05 11.95 20
02 11.95 29
08 11.95 8
05 11.96 19
02 11.96 29
08 11.96 9
05 11.97 14
02 11.97 29
08 11.97 9
05 11.98 17
02 11.98 28
08 11.98 10
05 11.99 20
02 11.99 27
08 11.99 8
05 12.0 26
02 12.0 35
08 12.0 13
05 12.1 23
02 12.1 35
08 12.1 16
05 12.2 20
02 12.2 32
08 12.2 9
05 12.3 27
02 12.3 34
08 12.3 6
05 12.4 21
02 12.4 35
08 12.4 8
05 12.5 26
02 12.5 36
08 12.5 9
05 12.6 22
02 12.6 34
08 12.6 13
05 12.7 26
02 12.7 33
08 12.7 13
05 12.8 23
02 12.8 34
08 12.8 8
05 12.9 20
02 12.9 33
08 12.9 6
05 12.10 22
02 12.10 35
08 12.10 19
05 12.11 20
02 12.11 35
08 12.11 6
05 12.12 25
02 12.12 35
08 12.12 16
05 12.13 24
02 12.13 33
08 12.13 9
05 12.14 25
02 12.14 32
08 12.14 17
05 12.15 26
02 12.15 33
08 12.15 9
05 12.16 22
02 12.16 31
08 12.16 11
05 12.17 24
02 12.17 33
08 12.17 14
05 12.18 28
02 12.18 34
08 12.18 10
05 12.19 26
02 12.19 32
08 12.19 13
05 12.20 28
02 12.20 36
08 12.20 13
05 12.21 24
02 12.21 34
08 12.21 11
05 12.22 26
02 12.22 34
08 12.22 12
05 12.23 23
02 12.23 33
08 12.23 13
05 12.24 23
02 12.24 33
08 12.24 11
05 12.25 25
02 12.25 33
08 12.25 15
05 12.26 22
02 12.26 34
08 12.26 13
05 12.27 24
02 12.27 34
08 12.27 11
05 12.28 25
02 12.28 31
08 12.28 13
05 12.29 22
02 12.29 33
08 12.29 10
05 12.30 26
02 12.30 34
08 12.30 16
05 12.31 25
02 12.31 33
08 12.31 13
05 12.32 23
02 12.32 31
08 12.32 9
05 12.33 21
02 12.33 32
08 12.33 11
05 12.34 26
02 12.34 34
08 12.34 16
05 12.35 20
02 12.35 30
08 12.35 13
05 12.36 23
02 12.36 34
08 12.36 12
05 12.37 26
02 12.37 33
08 12.37 15
05 12.38 23
02 12.38 35
08 12.38 9
05 12.39 25
02 12.39 36
08 12.39 10
05 12.40 25
02 12.40 33
08 12.40 14
05 12.41 24
02 12.41 33
08 12.41 9
05 12.42 22
02 12.42 34
08 12.42 16
05 12.43 27
02 12.43 35
08 12.43 13
05 12.44 23
02 12.44 34
08 12.44 11
05 12.45 26
02 12.45 36
08 12.45 8
05 12.46 21
02 12.46 33
08 12.46 8
05 12.47 21
02 12.47 35
08 12.47 11
05 12.48 20
02 12.48 32
08 12.48 6
05 12.49 23
02 12.49 36
08 12.49 12
05 12.50 25
02 12.50 33
08 12.50 15
05 12.51 19
02 12.51 33
08 12.51 14
05 12.52 24
02 12.52 34
08 12.52 8
05 12.53 26
02 12.53 33
08 12.53 15
05 12.54 24
02 12.54 33
08 12.54 8
05 12.55 25
02 12.55 33
08 12.55 14
05 12.56 23
02 12.56 35
08 12.56 16
05 12.57 29
02 12.57 35
08 12.57 13
05 12.58 25
02 12.58 31
08 12.58 8
05 12.59 22
02 12.59 32
08 12.59 11
05 12.60 25
02 12.60 34
08 12.60 12
05 12.61 21
02 12.61 31
08 12.61 9
05 12.62 24
02 12.62 34
08 12.62 9
05 12.63 27
02 12.63 31
08 12.63 11
05 12.64 26
02 12.64 34
08 12.64 10
05 12.65 24
02 12.65 33
08 12.65 15
05 12.66 25
02 12.66 33
08 12.66 6
05 12.67 24
02 12.67 33
08 12.67 9
05 12.68 26
02 12.68 33
08 12.68 12
05 12.69 21
02 12.69 33
08 12.69 10
05 12.70 24
02 12.70 31
08 12.70 14
05 12.71 23
02 12.71 36
08 12.71 13
05 12.72 25
02 12.72 36
08 12.72 14
05 12.73 21
02 12.73 33
08 12.73 16
05 12.74 21
02 12.74 36
08 12.74 11
05 12.75 28
02 12.75 34
08 12.75 14
05 12.76 23
02 12.76 32
08 12.76 14
05 12.77 23
02 12.77 33
08 12.77 15
05 12.78 23
02 12.78 35
08 12.78 15
05 12.79 24
02 12.79 32
08 12.79 14
05 12.80 25
02 12.80 31
08 12.80 10
05 12.81 24
02 12.81 34
08 12.81 11
05 12.82 26
02 12.82 32
08 12.82 10
05 12.83 21
02 12.83 35
08 12.83 9
05 12.84 20
02 12.84 32
08 12.84 11
05 12.85 24
02 12.85 33
08 12.85 13
05 12.86 23
02 12.86 35
08 12.86 13
05 12.87 25
02 12.87 34
08 12.87 12
05 12.88 24
02 12.88 36
08 12.88 11
05 12.89 24
02 12.89 33
08 12.89 9
05 12.90 24
02 12.90 34
08 12.90 8
05 12.91 19
02 12.91 32
08 12.91 12
05 12.92 20
02 12.92 35
08 12.92 9
05 12.93 21
02 12.93 35
08 12.93 8
05 12.94 27
02 12.94 32
08 12.94 13
05 12.95 27
02 12.95 34
08 12.95 9
05 12.96 26
02 12.96 33
08 12.96 9
05 12.97 24
02 12.97 34
08 12.97 13
05 12.98 23
02 12.98 35
08 12.98 12
05 12.99 28
02 12.99 33
08 12.99 9
05 13.0 27
02 13.0 35
08 13.0 14
05 13.1 25
02 13.1 38
08 13.1 14
05 13.2 26
02 13.2 39
08 13.2 9
05 13.3 25
02 13.3 37
08 13.3 14
05 13.4 28
02 13.4 41
08 13.4 16
05 13.5 28
02 13.5 38
08 13.5 13
05 13.6 22
02 13.6 40
08 13.6 12
05 13.7 27
02 13.7 39
08 13.7 12
05 13.8 27
02 13.8 38
08 13.8 17
05 13.9 26
02 13.9 39
08 13.9 12
05 13.10 27
02 13.10 40
08 13.10 16
05 13.11 29
02 13.11 36
08 13.11 14
05 13.12 28
02 13.12 40
08 13.12 16
05 13.13 24
02 13.13 35
08 13.13 14
05 13.14 29
02 13.14 39
08 13.14 16
05 13.15 30
02 13.15 40
08 13.15 14
05 13.16 29
02 13.16 39
08 13.16 16
05 13.17 32
02 13.17 38
08 13.17 14
05 13.18 30
02 13.18 39
08 13.18 12
05 13.19 33
02 13.19 40
08 13.19 15
05 13.20 26
02 13.20 38
08 13.20 9
05 13.21 28
02 13.21 42
08 13.21 13
05 13.22 27
02 13.22 39
08 13.22 12
05 13.23 26
02 13.23 39
08 13.23 16
05 13.24 28
02 13.24 42
08 13.24 15
05 13.25 29
02 13.25 38
08 13.25 13
05 13.26 25
02 13.26 40
08 13.26 15
05 13.27 21
02 13.27 39
08 13.27 13
05 13.28 28
02 13.28 39
08 13.28 16
05 13.29 27
02 13.29 36
08 13.29 15
05 13.30 29
02 13.30 38
08 13.30 16
05 13.31 32
02 13.31 37
08 13.31 14
05 13.32 28
02 13.32 41
08 13.32 11
05 13.33 26
02 13.33 37
08 13.33 9
05 13.34 32
02 13.34 40
08 13.34 13
05 13.35 29
02 13.35 37
08 13.35 13
05 13.36 28
02 13.36 39
08 13.36 16
05 13.37 30
02 13.37 35
08 13.37 14
05 13.38 28
02 13.38 41
08 13.38 13
05 13.39 29
02 13.39 38
08 13.39 12
05 13.40 30
02 13.40 41
08 13.40 18
05 13.41 26
02 13.41 40
08 13.41 18
05 13.42 29
02 13.42 41
08 13.42 15
05 13.43 32
02 13.43 38
08 13.43 13
05 13.44 27
02 13.44 39
08 13.44 13
05 13.45 31
02 13.45 38
08 13.45 18
05 13.46 25
02 13.46 41
08 13.46 14
05 13.47 27
02 13.47 38
08 13.47 12
05 13.48 30
02 13.48 41
08 13.48 13
05 13.49 27
02 13.49 42
08 13.49 16
05 13.50 28
02 13.50 39
08 13.50 12
05 13.51 28
02 13.51 40
08 13.51 13
05 13.52 25
02 13.52 40
08 13.52 10
05 13.53 33
02 13.53 41
08 13.53 13
05 13.54 32
02 13.54 38
08 13.54 16
05 13.55 29
02 13.55 41
08 13.55 25
05 13.56 25
02 13.56 37
08 13.56 14
05 13.57 28
02 13.57 41
08 13.57 18
05 13.58 28
02 13.58 38
08 13.58 10
05 13.59 25
02 13.59 40
08 13.59 14
05 13.60 24
02 13.60 37
08 13.60 9
05 13.61 26
02 13.61 37
08 13.61 16
05 13.62 30
02 13.62 40
08 13.62 11
05 13.63 25
02 13.63 39
08 13.63 19
05 13.64 24
02 13.64 38
08 13.64 14
05 13.65 30
02 13.65 41
08 13.65 10
05 13.66 28
02 13.66 39
08 13.66 14
05 13.67 32
02 13.67 40
08 13.67 16
05 13.68 27
02 13.68 41
08 13.68 10
05 13.69 26
02 13.69 37
08 13.69 12
05 13.70 28
02 13.70 38
08 13.70 13
05 13.71 27
02 13.71 40
08 13.71 13
05 13.72 28
02 13.72 41
08 13.72 16
05 13.73 26
02 13.73 38
08 13.73 14
05 13.74 28
02 13.74 40
08 13.74 11
05 13.75 27
02 13.75 38
08 13.75 14
05 13.76 29
02 13.76 41
08 13.76 18
05 13.77 27
02 13.77 40
08 13.77 16
05 13.78 25
02 13.78 42
08 13.78 15
05 13.79 28
02 13.79 39
08 13.79 14
05 13.80 31
02 13.80 36
08 13.80 9
05 13.81 29
02 13.81 39
08 13.81 11
05 13.82 28
02 13.82 39
08 13.82 12
05 13.83 29
02 13.83 41
08 13.83 13
05 13.84 33
02 13.84 40
08 13.84 13
05 13.85 28
02 13.85 38
08 13.85 12
05 13.86 30
02 13.86 39
08 13.86 12
05 13.87 29
02 13.87 41
08 13.87 15
05 13.88 28
02 13.88 35
08 13.88 14
05 13.89 27
02 13.89 41
08 13.89 16
05 13.90 24
02 13.90 40
08 13.90 14
05 13.91 33
02 13.91 39
08 13.91 14
05 13.92 27
02 13.92 40
08 13.92 13
05 13.93 30
02 13.93 39
08 13.93 19
05 13.94 28
02 13.94 40
08 13.94 11
05 13.95 26
02 13.95 39
08 13.95 15
05 13.96 29
02 13.96 40
08 13.96 11
05 13.97 29
02 13.97 41
08 13.97 16
05 13.98 28
02 13.98 37
08 13.98 15
05 13.99 27
02 13.99 39
08 13.99 14
05 14.0 39
02 14.0 41
08 14.0 13
05 14.1 34
02 14.1 43
08 14.1 16
05 14.2 35
02 14.2 44
08 14.2 18
05 14.3 30
02 14.3 46
08 14.3 13
05 14.4 37
02 14.4 47
08 14.4 15
05 14.5 30
02 14.5 46
08 14.5 15
05 14.6 36
02 14.6 45
08 14.6 14
05 14.7 35
02 14.7 47
08 14.7 20
05 14.8 33
02 14.8 48
08 14.8 16
05 14.9 34
02 14.9 44
08 14.9 21
05 14.10 29
02 14.10 44
08 14.10 15
05 14.11 35
02 14.11 47
08 14.11 13
05 14.12 31
02 14.12 44
08 14.12 16
05 14.13 29
02 14.13 45
08 14.13 15
05 14.14 32
02 14.14 44
08 14.14 14
05 14.15 32
02 14.15 44
08 14.15 17
05 14.16 28
02 14.16 45
08 14.16 17
05 14.17 37
02 14.17 45
08 14.17 20
05 14.18 32
02 14.18 43
08 14.18 19
05 14.19 31
02 14.19 49
08 14.19 15
05 14.20 27
02 14.20 45
08 14.20 19
05 14.21 34
02 14.21 43
08 14.21 18
05 14.22 34
02 14.22 45
08 14.22 18
05 14.23 31
02 14.23 44
08 14.23 15
05 14.24 40
02 14.24 43
08 14.24 19
05 14.25 28
02 14.25 46
08 14.25 15
05 14.26 35
02 14.26 48
08 14.26 19
05 14.27 29
02 14.27 44
08 14.27 16
05 14.28 32
02 14.28 47
08 14.28 15
05 14.29 32
02 14.29 47
08 14.29 11
05 14.30 33
02 14.30 44
08 14.30 17
05 14.31 32
02 14.31 44
08 14.31 14
05 14.32 28
02 14.32 42
08 14.32 14
05 14.33 31
02 14.33 45
08 14.33 15
05 14.34 32
02 14.34 45
08 14.34 20
05 14.35 31
02 14.35 47
08 14.35 16
05 14.36 30
02 14.36 43
08 14.36 18
05 14.37 34
02 14.37 46
08 14.37 17
05 14.38 29
02 14.38 44
08 14.38 15
05 14.39 35
02 14.39 46
08 14.39 17
05 14.40 28
02 14.40 46
08 14.40 14
05 14.41 30
02 14.41 42
08 14.41 13
05 14.42 30
02 14.42 44
08 14.42 15
05 14.43 32
02 14.43 46
08 14.43 19
05 14.44 35
02 14.44 42
08 14.44 12
05 14.45 35
02 14.45 46
08 14.45 19
05 14.46 35
02 14.46 45
08 14.46 18
05 14.47 33
02 14.47 45
08 14.47 22
05 14.48 34
02 14.48 48
08 14.48 14
05 14.49 30
02 14.49 43
08 14.49 18
05 14.50 39
02 14.50 46
08 14.50 12
05 14.51 38
02 14.51 47
08 14.51 14
05 14.52 36
02 14.52 47
08 14.52 18
05 14.53 33
02 14.53 46
08 14.53 14
05 14.54 34
02 14.54 45
08 14.54 18
05 14.55 33
02 14.55 46
08 14.55 17
05 14.56 33
02 14.56 47
08 14.56 15
05 14.57 31
02 14.57 47
08 14.57 16
05 14.58 32
02 14.58 43
08 14.58 13
05 14.59 35
02 14.59 45
08 14.59 15
05 14.60 34
02 14.60 45
08 14.60 18
05 14.61 29
02 14.61 43
08 14.61 17
05 14.62 28
02 14.62 46
08 14.62 19
05 14.63 30
02 14.63 46
08 14.63 15
05 14.64 32
02 14.64 46
08 14.64 17
05 14.65 30
02 14.65 45
08 14.65 18
05 14.66 31
02 14.66 46
08 14.66 19
05 14.67 31
02 14.67 47
08 14.67 18
05 14.68 33
02 14.68 47
08 14.68 15
05 14.69 34
02 14.69 44
08 14.69 15
05 14.70 30
02 14.70 48
08 14.70 13
05 14.71 31
02 14.71 44
08 14.71 14
05 14.72 30
02 14.72 46
08 14.72 19
05 14.73 33
02 14.73 46
08 14.73 18
05 14.74 34
02 14.74 47
08 14.74 13
05 14.75 25
02 14.75 46
08 14.75 15
05 14.76 27
02 14.76 46
08 14.76 19
05 14.77 34
02 14.77 47
08 14.77 17
05 14.78 36
02 14.78 46
08 14.78 19
05 14.79 38
02 14.79 47
08 14.79 18
05 14.80 35
02 14.80 47
08 14.80 10
05 14.81 29
02 14.81 46
08 14.81 12
05 14.82 31
02 14.82 44
08 14.82 12
05 14.83 27
02 14.83 45
08 14.83 15
05 14.84 29
02 14.84 40
08 14.84 16
05 14.85 30
02 14.85 47
08 14.85 8
05 14.86 34
02 14.86 48
08 14.86 12
05 14.87 31
02 14.87 49
08 14.87 14
05 14.88 41
02 14.88 46
08 14.88 13
05 14.89 33
02 14.89 46
08 14.89 15
05 14.90 38
02 14.90 42
08 14.90 14
05 14.91 32
02 14.91 44
08 14.91 16
05 14.92 35
02 14.92 49
08 14.92 10
05 14.93 32
02 14.93 46
08 14.93 21
05 14.94 31
02 14.94 45
08 14.94 14
05 14.95 39
02 14.95 43
08 14.95 16
05 14.96 36
02 14.96 46
08 14.96 17
05 14.97 31
02 14.97 44
08 14.97 16
05 14.98 35
02 14.98 46
08 14.98 17
05 14.99 40
02 14.99 47
08 14.99 15
